200
400
319
319
319
318
313
305
303
302
300
299
296
296
294
293
290
286
284
282
281
279
279
275
275
272
271
262
262
262
260
259
259
258
257
255
255
252
251
248
246
244
243
242
239
239
235
235
235
234
234
233
233
231
230
229
226
225
224
224
222
221
219
215
214
213
212
212
211
211
210
209
208
207
206
205
203
201
201
200
199
198
198
198
197
194
194
192
192
191
191
190
188
187
185
184
183
180
178
178
177
177
176
172
170
167
166
162
160
155
154
153
148
148
147
144
143
143
140
139
135
134
134
133
133
129
128
127
126
126
125
124
122
122
122
122
121
120
120
118
117
116
112
110
109
109
108
108
108
105
105
104
103
101
100
100
99
99
99
96
95
93
93
92
89
87
85
85
83
83
81
80
80
77
77
77
73
73
69
67
66
63
63
62
62
61
59
58
58
58
55
55
53
53
52
51
49
48
48
44
43
42
